int NumberPatients = 505
int NumberOfRooms = 1
int NumberSurgeons = 17
int NumberOfDays = 6
Duration = [251,78,85,87,55,103,55,55,55,87,251,165,87,55,98,98,90,107,90,90,90,48,130,59,63,136,63,166,90,79,39,55,119,55,141,55,133,87,54,87,54,87,87,136,46,166,66,66,63,54,77,66,103,111,49,111,87,55,119,141,90,66,77,59,136,103,90,46,80,78,66,39,118,103,107,80,48,78,103,66,145,77,103,107,39,66,66,103,166,166,90,103,85,118,66,103,107,115,53,103,123,65,90,48,44,98,136,87,133,133,103,55,48,54,103,54,149,54,55,55,54,55,63,65,55,133,54,107,55,100,54,65,63,103,87,87,87,145,52,57,55,55,30,90,107,77,59,117,91,48,103,54,69,55,103,54,87,150,136,136,54,90,55,119,65,103,79,66,101,101,87,103,87,107,87,100,48,59,103,59,54,53,63,136,55,140,59,118,87,50,65,117,103,55,63,133,48,54,150,50,87,65,87,49,100,53,114,87,74,55,53,55,104,54,98,138,90,117,87,54,100,50,87,55,136,46,107,103,65,65,136,136,54,54,54,66,77,136,136,66,136,65,136,101,59,48,53,66,114,147,63,59,55,59,63,65,54,56,65,103,100,87,44,150,107,107,115,136,30,107,53,65,65,52,65,59,107,107,65,107,87,65,63,103,136,111,130,66,66,103,136,101,87,103,66,136,145,103,65,136,133,90,65,145,59,85,48,66,44,66,54,149,55,55,87,103,50,69,87,147,66,90,54,38,65,98,63,66,117,133,65,103,55,55,54,55,48,100,72,39,115,55,46,103,133,149,119,119,65,63,125,95,100,103,103,85,66,55,55,55,119,66,87,48,103,103,104,55,65,114,78,119,66,53,119,119,66,100,107,66,66,103,107,55,66,53,87,103,119,86,63,66,65,136,63,55,78,149,87,118,103,103,103,138,103,65,104,59,87,48,66,48,63,44,63,39,58,55,54,117,133,169,136,66,54,87,54,55,115,105,119,114,65,55,103,50,85,90,87,103,87,100,118,55,48,71,107,63,103,55,69,46,89,114,55,111,66,54,74,54,140,44,92,107,100,63,87,30,87,44,85,104,60,54,30,60,114,95,130,87,60,65,55,86,114,60,117,79,117,138,55,138,55,60,63,60,114,114,59,38,55,60,55,85,165];
Priority = [0,0,0,0,0,0,0,0,0,0,0,0,0,0,0,0,0,0,0,0,0,0,0,0,0,0,0,0,0,0,0,0,0,0,0,0,0,0,0,0,0,0,0,0,0,0,0,0,0,0,0,0,0,0,0,0,0,0,0,0,0,0,0,0,0,0,0,0,0,0,0,0,0,0,0,0,0,0,0,0,0,0,0,0,0,0,0,0,0,0,0,0,0,0,0,0,0,0,0,0,0,0,0,0,0,0,0,0,0,0,0,0,0,0,0,0,0,0,0,0,0,0,0,0,0,0,0,0,0,0,0,0,0,0,0,0,0,0,0,3,0,0,0,0,0,0,0,0,0,0,0,0,0,0,0,0,0,0,0,0,0,0,0,0,0,0,0,0,0,0,0,0,0,0,0,0,0,0,0,0,0,0,0,0,0,0,0,0,0,0,0,0,0,0,0,0,0,0,0,0,0,0,0,0,0,0,0,0,0,0,0,0,0,0,0,0,0,0,0,0,0,0,0,0,0,0,0,0,0,0,0,0,0,0,0,0,0,0,0,0,0,0,0,0,0,0,0,0,0,0,0,0,0,0,0,0,0,0,0,0,0,0,0,0,0,0,0,0,0,0,0,0,0,0,0,0,0,0,0,0,0,0,0,0,0,0,0,0,0,0,0,0,0,0,0,0,0,0,0,0,0,0,0,0,0,0,0,0,0,0,0,0,0,0,0,0,0,0,0,0,0,0,0,0,0,0,0,0,0,0,0,0,0,0,0,0,0,0,0,0,0,0,0,0,0,0,0,0,0,0,0,0,0,0,0,0,0,0,0,0,0,0,0,0,0,0,0,0,1,0,0,0,0,0,0,0,0,0,0,0,0,0,0,0,0,0,0,0,0,0,0,0,0,0,0,0,0,0,0,0,0,0,0,0,0,0,0,0,0,0,0,0,0,0,0,0,0,0,0,0,0,0,0,0,0,0,0,0,0,0,0,0,0,0,0,0,0,0,0,0,0,0,0,0,0,0,0,0,0,0,0,0,0,0,0,0,0,0,0,0,0,0,0,0,0,0,0,0,0,0,0,0,0,0,0,0,0,0,0,0,0,0,0,0,0,0,0,0,0,0,0,0,0,0,0,1,0,0,0,0,0,0,0,0,0];
Waiting = [206,206,207,211,211,305,213,213,213,214,218,219,268,302,254,514,254,379,262,204,375,204,246,246,267,198,198,247,205,270,204,196,191,192,191,192,191,189,190,191,189,182,183,183,183,184,184,184,184,185,182,182,179,178,178,177,175,172,176,176,172,172,172,169,169,169,169,170,170,171,171,169,171,171,170,170,171,170,165,165,165,165,165,164,164,164,164,164,163,163,163,163,163,163,163,163,163,163,162,158,158,158,158,158,158,158,157,157,157,157,156,156,156,156,155,155,154,151,151,151,151,150,149,147,144,144,144,143,141,140,137,137,135,134,133,133,130,129,127,123,123,123,122,122,121,121,121,121,121,121,120,116,116,116,115,115,114,114,114,114,114,114,113,113,113,113,113,113,112,112,109,109,108,108,108,108,108,109,108,109,109,108,107,107,107,107,107,107,106,106,102,102,102,102,102,102,102,102,102,102,101,101,101,101,101,100,100,100,99,99,99,99,99,99,99,98,95,95,95,95,95,95,94,94,94,93,93,93,92,92,92,92,92,92,92,92,87,87,87,87,87,87,87,87,87,87,86,86,86,86,86,86,86,86,85,85,85,85,84,81,81,81,94,80,80,80,80,80,80,80,80,80,80,80,80,80,79,79,79,79,79,77,77,74,74,74,73,73,73,73,73,73,73,73,73,73,73,73,73,72,72,72,72,72,72,72,72,72,71,71,71,71,71,71,71,71,70,70,70,67,67,67,67,67,66,65,65,65,64,64,64,64,64,64,64,64,60,60,60,60,60,59,59,59,59,59,58,58,58,58,58,58,58,58,58,58,57,57,57,57,57,57,57,57,53,53,53,53,52,52,52,51,51,51,51,51,51,51,51,51,51,51,51,50,50,50,50,50,50,50,50,50,49,49,49,46,46,46,45,45,45,45,45,45,45,45,45,45,44,44,44,43,43,43,43,43,43,43,43,39,39,39,39,39,39,39,39,39,39,39,38,38,38,38,37,37,37,37,37,37,37,37,37,37,37,37,37,36,36,36,36,36,36,36,36,36,36,36,35,35,32,32,32,32,32,31,31,31,31,31,22,24,24,24,24,24,24,24,25,25,25,25,25,30,30,30,22,30,23,22,22,25,30,30,23,21,23,23,24,22,22,22,22,30,21];

Surgeon = [1,2,3,4,5,6,1,7,7,3,1,8,3,5,2,8,2,9,10,11,3,5,1,1,5,8,12,6,6,3,13,14,12,1,2,2,2,8,5,3,15,13,4,5,13,6,12,8,12,1,5,5,12,7,7,7,8,1,9,13,1,5,13,4,13,9,13,8,6,2,15,13,2,5,8,6,9,7,14,7,9,1,9,2,9,16,15,3,6,6,6,12,8,12,15,1,6,6,9,7,7,9,7,9,9,1,8,7,2,7,12,1,1,1,3,16,12,1,4,1,6,5,12,1,1,14,1,2,3,9,6,5,12,13,14,14,11,5,3,16,5,1,7,10,6,1,6,6,6,1,13,1,10,1,7,3,6,7,6,6,1,1,5,13,3,12,15,15,10,9,9,12,5,2,8,2,10,10,10,16,1,10,15,15,7,15,1,2,13,15,6,9,9,5,16,7,16,1,7,5,7,9,10,7,3,8,8,8,3,3,9,9,9,15,15,10,7,9,9,1,7,1,7,16,3,8,8,6,3,3,13,13,10,10,10,15,10,8,8,16,8,10,8,10,3,3,8,2,8,12,12,17,17,17,16,12,10,10,7,6,11,9,10,2,2,7,5,8,7,5,9,15,9,3,3,3,6,6,8,6,2,12,12,6,6,1,2,2,8,5,8,9,10,5,5,3,9,9,15,8,2,7,12,2,17,1,1,1,3,4,12,16,10,9,15,9,8,10,9,11,11,11,13,16,10,7,12,8,13,12,12,12,10,10,10,10,9,11,6,5,16,5,8,10,7,3,8,8,7,12,17,3,1,6,6,1,13,3,3,10,15,9,3,10,6,6,9,1,2,2,10,15,15,6,15,15,15,6,15,15,1,6,2,3,12,3,13,13,15,15,15,15,12,8,12,7,5,5,10,2,6,10,3,9,10,10,9,3,8,8,15,3,3,3,15,10,9,10,10,11,11,7,7,7,4,7,16,5,5,5,5,2,10,3,8,4,7,7,8,4,12,7,2,1,2,17,2,3,13,3,3,13,3,12,10,5,11,10,6,1,6,9,9,5,5,16,9,9,5,5,4,2,2,5,5,5,9,5,9,5,5,12,5,10,6,6,13,2,12,9,10,9,10,10,12,5,8,6,16,10,10,10,10,10,8];
BlockAvailability = [[[1,1]],[[1,1]],[[0,1]],[[1,1]],[[0,1]],[[0,0]]];
SurgeonAvailability = [[[1,1],[1,1],[1,1],[1,1],[1,1],[1,1]],[[1,1],[1,1],[1,1],[1,1],[1,1],[1,1]],[[1,1],[1,1],[1,1],[1,1],[1,1],[1,1]],[[1,1],[1,1],[1,1],[1,1],[1,1],[1,1]],[[1,1],[1,1],[1,1],[1,1],[1,1],[1,1]],[[1,1],[1,1],[1,1],[1,1],[1,1],[1,1]],[[1,1],[1,1],[1,1],[1,1],[1,1],[1,1]],[[1,1],[1,1],[1,1],[1,1],[1,1],[1,1]],[[1,1],[1,1],[1,1],[1,1],[1,1],[1,1]],[[1,1],[1,1],[1,1],[1,1],[1,1],[1,1]],[[1,1],[1,1],[1,1],[1,1],[1,1],[1,1]],[[1,1],[1,1],[1,1],[1,1],[1,1],[1,1]],[[1,1],[1,1],[1,1],[1,1],[1,1],[1,1]],[[1,1],[1,1],[1,1],[1,1],[1,1],[1,1]],[[1,1],[1,1],[1,1],[1,1],[1,1],[1,1]],[[1,1],[1,1],[1,1],[1,1],[1,1],[1,1]],[[1,1],[1,1],[1,1],[1,1],[1,1],[1,1]]];
